p cnf 10 50
-3 -8 2 0
1 -2 9 0
3 -2 -10 0
-5 8 -6 0
-6 2 8 0
10 -1 7 0
7 -2 -8 0
7 -1 6 0
5 9 -3 0
-2 -6 9 0
8 -6 4 0
-1 -6 3 0
-6 10 1 0
-9 1 -6 0
-6 5 -7 0
-5 6 -1 0
6 7 1 0
-4 -1 8 0
3 8 -6 0
-6 -8 10 0
-4 1 8 0
3 1 9 0
-10 8 6 0
-8 -6 -10 0
-4 9 -2 0
-7 -4 5 0
-2 -3 9 0
2 1 -4 0
10 -7 -9 0
-1 2 -3 0
2 5 -8 0
7 -9 -6 0
6 -5 -1 0
10 -7 -1 0
9 -6 5 0
-3 5 -2 0
5 3 -7 0
3 4 9 0
-9 4 6 0
3 9 -6 0
-2 1 8 0
2 -10 -7 0
-3 5 2 0
2 7 4 0
4 9 10 0
-5 -4 -2 0
-3 -1 -6 0
-10 -5 3 0
-7 -10 4 0
-10 6 7 0